c ren 1 -> 1
c ren 2 -> 2
c ren 3 -> 3
c ren 4 -> 4
c ren 7 -> 5
c ren 8 -> 6
c ren 9 -> 7
c ren 14 -> 8
c ren 15 -> 9
c ren 16 -> 10
c ren 20 -> 11
c ren 21 -> 12
c ren 25 -> 13
c ren 28 -> 14
c ren 29 -> 15
c ren 30 -> 16
c ren 42 -> 17
c ren 48 -> 18
p cnf 18 101
a 1 2 3 5 6 7 8 9 10 12 14 0
d 15 2 3 0
d 16 6 7 0
d 17 9 10 0
d 18 9 10 0
e 4 11 13 0
-2 3 4 0
2 -3 4 0
-2 -3 -4 0
2 3 -4 0
-1 -4 -5 -6 7 8 -9 -10 -11 0
-1 -4 -5 -6 7 -8 -9 10 -11 0
1 4 -5 6 -7 -8 -9 10 -11 0
-1 -4 -5 -6 7 8 9 10 -11 0
3 8 11 12 -13 14 16 -17 0
3 -8 11 12 -13 14 16 17 0
-1 -4 5 6 7 8 9 10 -11 0
-1 -4 5 -6 -7 8 -9 -10 -11 0
-1 -4 5 -6 -7 -8 9 -10 -11 0
-1 -4 -5 6 -7 -8 -9 10 -11 0
-1 -4 -5 6 -7 8 9 10 -11 0
-1 -4 -5 6 -7 -8 9 -10 -11 0
-1 -4 5 6 7 8 -9 -10 -11 0
3 8 11 -12 -13 14 16 17 0
3 -8 11 -12 -13 14 16 -17 0
-1 -4 -5 6 -7 8 -9 -10 -11 0
-1 -4 5 -6 -7 8 9 10 -11 0
-1 -4 5 6 7 -8 9 -10 -11 0
-1 -4 -5 -6 7 -8 9 -10 -11 0
1 4 -5 -6 7 -8 9 -10 -11 0
-1 -4 5 6 7 -8 -9 10 -11 0
3 8 10 11 -13 14 16 -18 0
-1 -4 5 -6 -7 -8 -9 10 -11 0
1 4 -5 -6 7 -8 -9 10 -11 0
-1 -5 -12 13 0
3 5 12 13 0
2 -8 11 -12 -13 14 15 18 0
1 -2 -3 5 11 -13 -14 -16 0
3 9 11 12 -13 14 15 -18 0
1 2 12 13 0
3 8 11 12 -13 14 15 -17 0
-2 -3 8 11 -12 -14 -17 0
3 -8 11 -12 -13 14 15 18 0
-2 -3 -12 13 0
3 10 11 12 -13 14 16 -18 0
1 3 -5 11 -13 14 15 16 0
3 -8 11 12 -13 14 15 17 0
-8 11 -12 -13 -14 -15 -16 17 0
2 -8 11 12 -13 14 16 17 0
2 8 11 -12 -13 14 15 17 0
8 9 11 -13 -14 -15 -16 -18 0
2 10 11 12 -13 14 16 -18 0
-1 3 5 11 -13 14 15 16 0
3 9 11 12 -13 14 16 -18 0
3 -8 11 -12 -13 14 16 18 0
-1 3 -5 11 -13 14 15 -16 0
2 8 9 11 -13 14 16 -18 0
-1 2 5 11 -13 14 15 16 0
2 -8 11 -12 -13 14 16 -17 0
2 9 11 12 -13 14 16 -18 0
2 -8 11 -12 -13 14 16 18 0
1 2 -5 11 -13 14 15 16 0
2 8 11 12 -13 14 16 -17 0
2 8 11 -12 -13 14 16 17 0
2 -8 11 -12 -13 14 15 -17 0
-1 2 -5 11 -13 14 15 -16 0
10 11 12 -13 -14 -15 -16 -18 0
1 -2 -3 5 11 -13 -14 -15 0
10 11 12 -13 -14 -15 -16 -17 0
9 11 12 -13 -14 -15 -16 -18 0
-2 -3 -8 11 -12 -14 17 0
2 8 11 12 -13 14 15 -17 0
9 11 12 -13 -14 -15 -16 -17 0
-8 11 12 -13 -14 -15 -16 -17 0
8 11 12 -13 -14 -15 -16 17 0
2 -8 11 12 -13 14 15 17 0
8 9 11 -13 -14 -15 -16 -17 0
-2 -3 8 9 11 -13 -14 -18 0
3 -8 11 -12 -13 14 15 -17 0
-1 -5 11 -13 -14 -15 -16 0
3 10 11 12 -13 14 15 -18 0
1 -2 -3 -5 11 -13 -14 15 16 0
1 2 5 11 -13 14 -15 16 0
3 8 11 -12 -13 14 15 17 0
2 10 11 12 -13 14 15 -18 0
3 8 10 11 -13 14 15 -18 0
1 5 11 -13 -14 -15 -16 0
-1 2 -5 11 -13 14 -15 16 0
2 8 9 11 -13 14 15 -18 0
8 11 -12 -13 -14 -15 -16 -17 0
2 9 11 12 -13 14 15 -18 0
-1 3 -5 11 -13 14 -15 16 0
1 3 5 11 -13 14 15 -16 0
2 5 12 13 0
1 4 -5 -6 7 8 -9 -10 -11 0
1 4 -5 -6 7 8 9 10 -11 0
1 4 -5 6 -7 -8 9 -10 -11 0
1 4 -5 6 -7 8 -9 -10 -11 0
1 4 -5 6 -7 8 9 10 -11 0
1 4 5 -6 -7 -8 -9 10 -11 0
1 4 5 -6 -7 -8 9 -10 -11 0
1 4 5 -6 -7 8 -9 -10 -11 0
1 4 5 -6 -7 8 9 10 -11 0
1 4 5 6 7 -8 -9 10 -11 0
1 4 5 6 7 -8 9 -10 -11 0
1 4 5 6 7 8 -9 -10 -11 0
1 4 5 6 7 8 9 10 -11 0
